Route #1: 1 6 25 24 43 23 1 
Route #2: 1 8 7 26 31 22 32 1 
Route #3: 1 1 27 9 10 34 21 29 1 
Route #4: 1 48 14 18 1 
Route #5: 1 38 5 17 40 4 47 1 
Route #6: 1 28 3 35 20 46 1 
Route #7: 1 16 50 49 39 45 42 1 
Route #8: 1 2 11 12 1 
Route #9: 1 36 30 15 37 44 19 1 
Route #10: 1 13 41 33 1 

Cost 1054.71
Time 0.5713


 * Another infos *

 Iterations: 51 Time: 0.5713 sec - 0.0095 min - 0.0002 horas
0.0000 h 0.0095 min
Problem dimension: 51
